c 7x7
p cnf 49 576
1 2 8 0
-1 -2 8 0
-1 2 -8 0
1 -2 -8 0
1 2 3 9 0
-1 -2 3 9 0
-1 2 -3 9 0
-1 2 3 -9 0
1 -2 -3 9 0
1 -2 3 -9 0
1 2 -3 -9 0
-1 -2 -3 -9 0
2 3 4 10 0
-2 -3 4 10 0
-2 3 -4 10 0
-2 3 4 -10 0
2 -3 -4 10 0
2 -3 4 -10 0
2 3 -4 -10 0
-2 -3 -4 -10 0
3 4 5 11 0
-3 -4 5 11 0
-3 4 -5 11 0
-3 4 5 -11 0
3 -4 -5 11 0
3 -4 5 -11 0
3 4 -5 -11 0
-3 -4 -5 -11 0
4 5 6 12 0
-4 -5 6 12 0
-4 5 -6 12 0
-4 5 6 -12 0
4 -5 -6 12 0
4 -5 6 -12 0
4 5 -6 -12 0
-4 -5 -6 -12 0
5 6 7 13 0
-5 -6 7 13 0
-5 6 -7 13 0
-5 6 7 -13 0
5 -6 -7 13 0
5 -6 7 -13 0
5 6 -7 -13 0
-5 -6 -7 -13 0
6 7 14 0
-6 -7 14 0
-6 7 -14 0
6 -7 -14 0
1 8 9 15 0
-1 -8 9 15 0
-1 8 -9 15 0
-1 8 9 -15 0
1 -8 -9 15 0
1 -8 9 -15 0
1 8 -9 -15 0
-1 -8 -9 -15 0
2 8 9 10 16 0
-2 -8 9 10 16 0
-2 8 -9 10 16 0
-2 8 9 -10 16 0
-2 8 9 10 -16 0
2 -8 -9 10 16 0
2 -8 9 -10 16 0
2 -8 9 10 -16 0
2 8 -9 -10 16 0
2 8 -9 10 -16 0
2 8 9 -10 -16 0
-2 -8 -9 -10 16 0
-2 -8 -9 10 -16 0
-2 -8 9 -10 -16 0
-2 8 -9 -10 -16 0
2 -8 -9 -10 -16 0
3 9 10 11 17 0
-3 -9 10 11 17 0
-3 9 -10 11 17 0
-3 9 10 -11 17 0
-3 9 10 11 -17 0
3 -9 -10 11 17 0
3 -9 10 -11 17 0
3 -9 10 11 -17 0
3 9 -10 -11 17 0
3 9 -10 11 -17 0
3 9 10 -11 -17 0
-3 -9 -10 -11 17 0
-3 -9 -10 11 -17 0
-3 -9 10 -11 -17 0
-3 9 -10 -11 -17 0
3 -9 -10 -11 -17 0
4 10 11 12 18 0
-4 -10 11 12 18 0
-4 10 -11 12 18 0
-4 10 11 -12 18 0
-4 10 11 12 -18 0
4 -10 -11 12 18 0
4 -10 11 -12 18 0
4 -10 11 12 -18 0
4 10 -11 -12 18 0
4 10 -11 12 -18 0
4 10 11 -12 -18 0
-4 -10 -11 -12 18 0
-4 -10 -11 12 -18 0
-4 -10 11 -12 -18 0
-4 10 -11 -12 -18 0
4 -10 -11 -12 -18 0
5 11 12 13 19 0
-5 -11 12 13 19 0
-5 11 -12 13 19 0
-5 11 12 -13 19 0
-5 11 12 13 -19 0
5 -11 -12 13 19 0
5 -11 12 -13 19 0
5 -11 12 13 -19 0
5 11 -12 -13 19 0
5 11 -12 13 -19 0
5 11 12 -13 -19 0
-5 -11 -12 -13 19 0
-5 -11 -12 13 -19 0
-5 -11 12 -13 -19 0
-5 11 -12 -13 -19 0
5 -11 -12 -13 -19 0
6 12 13 14 20 0
-6 -12 13 14 20 0
-6 12 -13 14 20 0
-6 12 13 -14 20 0
-6 12 13 14 -20 0
6 -12 -13 14 20 0
6 -12 13 -14 20 0
6 -12 13 14 -20 0
6 12 -13 -14 20 0
6 12 -13 14 -20 0
6 12 13 -14 -20 0
-6 -12 -13 -14 20 0
-6 -12 -13 14 -20 0
-6 -12 13 -14 -20 0
-6 12 -13 -14 -20 0
6 -12 -13 -14 -20 0
7 13 14 21 0
-7 -13 14 21 0
-7 13 -14 21 0
-7 13 14 -21 0
7 -13 -14 21 0
7 -13 14 -21 0
7 13 -14 -21 0
-7 -13 -14 -21 0
8 15 16 22 0
-8 -15 16 22 0
-8 15 -16 22 0
-8 15 16 -22 0
8 -15 -16 22 0
8 -15 16 -22 0
8 15 -16 -22 0
-8 -15 -16 -22 0
9 15 16 17 23 0
-9 -15 16 17 23 0
-9 15 -16 17 23 0
-9 15 16 -17 23 0
-9 15 16 17 -23 0
9 -15 -16 17 23 0
9 -15 16 -17 23 0
9 -15 16 17 -23 0
9 15 -16 -17 23 0
9 15 -16 17 -23 0
9 15 16 -17 -23 0
-9 -15 -16 -17 23 0
-9 -15 -16 17 -23 0
-9 -15 16 -17 -23 0
-9 15 -16 -17 -23 0
9 -15 -16 -17 -23 0
10 16 17 18 24 0
-10 -16 17 18 24 0
-10 16 -17 18 24 0
-10 16 17 -18 24 0
-10 16 17 18 -24 0
10 -16 -17 18 24 0
10 -16 17 -18 24 0
10 -16 17 18 -24 0
10 16 -17 -18 24 0
10 16 -17 18 -24 0
10 16 17 -18 -24 0
-10 -16 -17 -18 24 0
-10 -16 -17 18 -24 0
-10 -16 17 -18 -24 0
-10 16 -17 -18 -24 0
10 -16 -17 -18 -24 0
11 17 18 19 25 0
-11 -17 18 19 25 0
-11 17 -18 19 25 0
-11 17 18 -19 25 0
-11 17 18 19 -25 0
11 -17 -18 19 25 0
11 -17 18 -19 25 0
11 -17 18 19 -25 0
11 17 -18 -19 25 0
11 17 -18 19 -25 0
11 17 18 -19 -25 0
-11 -17 -18 -19 25 0
-11 -17 -18 19 -25 0
-11 -17 18 -19 -25 0
-11 17 -18 -19 -25 0
11 -17 -18 -19 -25 0
12 18 19 20 26 0
-12 -18 19 20 26 0
-12 18 -19 20 26 0
-12 18 19 -20 26 0
-12 18 19 20 -26 0
12 -18 -19 20 26 0
12 -18 19 -20 26 0
12 -18 19 20 -26 0
12 18 -19 -20 26 0
12 18 -19 20 -26 0
12 18 19 -20 -26 0
-12 -18 -19 -20 26 0
-12 -18 -19 20 -26 0
-12 -18 19 -20 -26 0
-12 18 -19 -20 -26 0
12 -18 -19 -20 -26 0
13 19 20 21 27 0
-13 -19 20 21 27 0
-13 19 -20 21 27 0
-13 19 20 -21 27 0
-13 19 20 21 -27 0
13 -19 -20 21 27 0
13 -19 20 -21 27 0
13 -19 20 21 -27 0
13 19 -20 -21 27 0
13 19 -20 21 -27 0
13 19 20 -21 -27 0
-13 -19 -20 -21 27 0
-13 -19 -20 21 -27 0
-13 -19 20 -21 -27 0
-13 19 -20 -21 -27 0
13 -19 -20 -21 -27 0
14 20 21 28 0
-14 -20 21 28 0
-14 20 -21 28 0
-14 20 21 -28 0
14 -20 -21 28 0
14 -20 21 -28 0
14 20 -21 -28 0
-14 -20 -21 -28 0
15 22 23 29 0
-15 -22 23 29 0
-15 22 -23 29 0
-15 22 23 -29 0
15 -22 -23 29 0
15 -22 23 -29 0
15 22 -23 -29 0
-15 -22 -23 -29 0
16 22 23 24 30 0
-16 -22 23 24 30 0
-16 22 -23 24 30 0
-16 22 23 -24 30 0
-16 22 23 24 -30 0
16 -22 -23 24 30 0
16 -22 23 -24 30 0
16 -22 23 24 -30 0
16 22 -23 -24 30 0
16 22 -23 24 -30 0
16 22 23 -24 -30 0
-16 -22 -23 -24 30 0
-16 -22 -23 24 -30 0
-16 -22 23 -24 -30 0
-16 22 -23 -24 -30 0
16 -22 -23 -24 -30 0
17 23 24 25 31 0
-17 -23 24 25 31 0
-17 23 -24 25 31 0
-17 23 24 -25 31 0
-17 23 24 25 -31 0
17 -23 -24 25 31 0
17 -23 24 -25 31 0
17 -23 24 25 -31 0
17 23 -24 -25 31 0
17 23 -24 25 -31 0
17 23 24 -25 -31 0
-17 -23 -24 -25 31 0
-17 -23 -24 25 -31 0
-17 -23 24 -25 -31 0
-17 23 -24 -25 -31 0
17 -23 -24 -25 -31 0
18 24 25 26 32 0
-18 -24 25 26 32 0
-18 24 -25 26 32 0
-18 24 25 -26 32 0
-18 24 25 26 -32 0
18 -24 -25 26 32 0
18 -24 25 -26 32 0
18 -24 25 26 -32 0
18 24 -25 -26 32 0
18 24 -25 26 -32 0
18 24 25 -26 -32 0
-18 -24 -25 -26 32 0
-18 -24 -25 26 -32 0
-18 -24 25 -26 -32 0
-18 24 -25 -26 -32 0
18 -24 -25 -26 -32 0
19 25 26 27 33 0
-19 -25 26 27 33 0
-19 25 -26 27 33 0
-19 25 26 -27 33 0
-19 25 26 27 -33 0
19 -25 -26 27 33 0
19 -25 26 -27 33 0
19 -25 26 27 -33 0
19 25 -26 -27 33 0
19 25 -26 27 -33 0
19 25 26 -27 -33 0
-19 -25 -26 -27 33 0
-19 -25 -26 27 -33 0
-19 -25 26 -27 -33 0
-19 25 -26 -27 -33 0
19 -25 -26 -27 -33 0
20 26 27 28 34 0
-20 -26 27 28 34 0
-20 26 -27 28 34 0
-20 26 27 -28 34 0
-20 26 27 28 -34 0
20 -26 -27 28 34 0
20 -26 27 -28 34 0
20 -26 27 28 -34 0
20 26 -27 -28 34 0
20 26 -27 28 -34 0
20 26 27 -28 -34 0
-20 -26 -27 -28 34 0
-20 -26 -27 28 -34 0
-20 -26 27 -28 -34 0
-20 26 -27 -28 -34 0
20 -26 -27 -28 -34 0
21 27 28 35 0
-21 -27 28 35 0
-21 27 -28 35 0
-21 27 28 -35 0
21 -27 -28 35 0
21 -27 28 -35 0
21 27 -28 -35 0
-21 -27 -28 -35 0
22 29 30 36 0
-22 -29 30 36 0
-22 29 -30 36 0
-22 29 30 -36 0
22 -29 -30 36 0
22 -29 30 -36 0
22 29 -30 -36 0
-22 -29 -30 -36 0
23 29 30 31 37 0
-23 -29 30 31 37 0
-23 29 -30 31 37 0
-23 29 30 -31 37 0
-23 29 30 31 -37 0
23 -29 -30 31 37 0
23 -29 30 -31 37 0
23 -29 30 31 -37 0
23 29 -30 -31 37 0
23 29 -30 31 -37 0
23 29 30 -31 -37 0
-23 -29 -30 -31 37 0
-23 -29 -30 31 -37 0
-23 -29 30 -31 -37 0
-23 29 -30 -31 -37 0
23 -29 -30 -31 -37 0
24 30 31 32 38 0
-24 -30 31 32 38 0
-24 30 -31 32 38 0
-24 30 31 -32 38 0
-24 30 31 32 -38 0
24 -30 -31 32 38 0
24 -30 31 -32 38 0
24 -30 31 32 -38 0
24 30 -31 -32 38 0
24 30 -31 32 -38 0
24 30 31 -32 -38 0
-24 -30 -31 -32 38 0
-24 -30 -31 32 -38 0
-24 -30 31 -32 -38 0
-24 30 -31 -32 -38 0
24 -30 -31 -32 -38 0
25 31 32 33 39 0
-25 -31 32 33 39 0
-25 31 -32 33 39 0
-25 31 32 -33 39 0
-25 31 32 33 -39 0
25 -31 -32 33 39 0
25 -31 32 -33 39 0
25 -31 32 33 -39 0
25 31 -32 -33 39 0
25 31 -32 33 -39 0
25 31 32 -33 -39 0
-25 -31 -32 -33 39 0
-25 -31 -32 33 -39 0
-25 -31 32 -33 -39 0
-25 31 -32 -33 -39 0
25 -31 -32 -33 -39 0
26 32 33 34 40 0
-26 -32 33 34 40 0
-26 32 -33 34 40 0
-26 32 33 -34 40 0
-26 32 33 34 -40 0
26 -32 -33 34 40 0
26 -32 33 -34 40 0
26 -32 33 34 -40 0
26 32 -33 -34 40 0
26 32 -33 34 -40 0
26 32 33 -34 -40 0
-26 -32 -33 -34 40 0
-26 -32 -33 34 -40 0
-26 -32 33 -34 -40 0
-26 32 -33 -34 -40 0
26 -32 -33 -34 -40 0
27 33 34 35 41 0
-27 -33 34 35 41 0
-27 33 -34 35 41 0
-27 33 34 -35 41 0
-27 33 34 35 -41 0
27 -33 -34 35 41 0
27 -33 34 -35 41 0
27 -33 34 35 -41 0
27 33 -34 -35 41 0
27 33 -34 35 -41 0
27 33 34 -35 -41 0
-27 -33 -34 -35 41 0
-27 -33 -34 35 -41 0
-27 -33 34 -35 -41 0
-27 33 -34 -35 -41 0
27 -33 -34 -35 -41 0
28 34 35 42 0
-28 -34 35 42 0
-28 34 -35 42 0
-28 34 35 -42 0
28 -34 -35 42 0
28 -34 35 -42 0
28 34 -35 -42 0
-28 -34 -35 -42 0
29 36 37 43 0
-29 -36 37 43 0
-29 36 -37 43 0
-29 36 37 -43 0
29 -36 -37 43 0
29 -36 37 -43 0
29 36 -37 -43 0
-29 -36 -37 -43 0
30 36 37 38 44 0
-30 -36 37 38 44 0
-30 36 -37 38 44 0
-30 36 37 -38 44 0
-30 36 37 38 -44 0
30 -36 -37 38 44 0
30 -36 37 -38 44 0
30 -36 37 38 -44 0
30 36 -37 -38 44 0
30 36 -37 38 -44 0
30 36 37 -38 -44 0
-30 -36 -37 -38 44 0
-30 -36 -37 38 -44 0
-30 -36 37 -38 -44 0
-30 36 -37 -38 -44 0
30 -36 -37 -38 -44 0
31 37 38 39 45 0
-31 -37 38 39 45 0
-31 37 -38 39 45 0
-31 37 38 -39 45 0
-31 37 38 39 -45 0
31 -37 -38 39 45 0
31 -37 38 -39 45 0
31 -37 38 39 -45 0
31 37 -38 -39 45 0
31 37 -38 39 -45 0
31 37 38 -39 -45 0
-31 -37 -38 -39 45 0
-31 -37 -38 39 -45 0
-31 -37 38 -39 -45 0
-31 37 -38 -39 -45 0
31 -37 -38 -39 -45 0
32 38 39 40 46 0
-32 -38 39 40 46 0
-32 38 -39 40 46 0
-32 38 39 -40 46 0
-32 38 39 40 -46 0
32 -38 -39 40 46 0
32 -38 39 -40 46 0
32 -38 39 40 -46 0
32 38 -39 -40 46 0
32 38 -39 40 -46 0
32 38 39 -40 -46 0
-32 -38 -39 -40 46 0
-32 -38 -39 40 -46 0
-32 -38 39 -40 -46 0
-32 38 -39 -40 -46 0
32 -38 -39 -40 -46 0
33 39 40 41 47 0
-33 -39 40 41 47 0
-33 39 -40 41 47 0
-33 39 40 -41 47 0
-33 39 40 41 -47 0
33 -39 -40 41 47 0
33 -39 40 -41 47 0
33 -39 40 41 -47 0
33 39 -40 -41 47 0
33 39 -40 41 -47 0
33 39 40 -41 -47 0
-33 -39 -40 -41 47 0
-33 -39 -40 41 -47 0
-33 -39 40 -41 -47 0
-33 39 -40 -41 -47 0
33 -39 -40 -41 -47 0
34 40 41 42 48 0
-34 -40 41 42 48 0
-34 40 -41 42 48 0
-34 40 41 -42 48 0
-34 40 41 42 -48 0
34 -40 -41 42 48 0
34 -40 41 -42 48 0
34 -40 41 42 -48 0
34 40 -41 -42 48 0
34 40 -41 42 -48 0
34 40 41 -42 -48 0
-34 -40 -41 -42 48 0
-34 -40 -41 42 -48 0
-34 -40 41 -42 -48 0
-34 40 -41 -42 -48 0
34 -40 -41 -42 -48 0
35 41 42 49 0
-35 -41 42 49 0
-35 41 -42 49 0
-35 41 42 -49 0
35 -41 -42 49 0
35 -41 42 -49 0
35 41 -42 -49 0
-35 -41 -42 -49 0
36 43 44 0
-36 -43 44 0
-36 43 -44 0
36 -43 -44 0
37 43 44 45 0
-37 -43 44 45 0
-37 43 -44 45 0
-37 43 44 -45 0
37 -43 -44 45 0
37 -43 44 -45 0
37 43 -44 -45 0
-37 -43 -44 -45 0
38 44 45 46 0
-38 -44 45 46 0
-38 44 -45 46 0
-38 44 45 -46 0
38 -44 -45 46 0
38 -44 45 -46 0
38 44 -45 -46 0
-38 -44 -45 -46 0
39 45 46 47 0
-39 -45 46 47 0
-39 45 -46 47 0
-39 45 46 -47 0
39 -45 -46 47 0
39 -45 46 -47 0
39 45 -46 -47 0
-39 -45 -46 -47 0
40 46 47 48 0
-40 -46 47 48 0
-40 46 -47 48 0
-40 46 47 -48 0
40 -46 -47 48 0
40 -46 47 -48 0
40 46 -47 -48 0
-40 -46 -47 -48 0
41 47 48 49 0
-41 -47 48 49 0
-41 47 -48 49 0
-41 47 48 -49 0
41 -47 -48 49 0
41 -47 48 -49 0
41 47 -48 -49 0
-41 -47 -48 -49 0
42 48 49 0
-42 -48 49 0
-42 48 -49 0
42 -48 -49 0
